
--- Job sourceFile.gms Start 08/14/24 13:19:18 47.4.0 838fd78c WEX-WEI x86 64bit/MS Windows
--- Applying:
    C:\Program Files (x86)\GAMS\47\gmsprmNT.txt
--- GAMS Parameters defined
    Input C:\projects\itStud9Lp2024\gamsWorkSpace\sourceFile.gms
    PageSize 0
    ScrDir C:\projects\itStud9Lp2024\gamsWorkSpace\225b\
    SysDir "C:\Program Files (x86)\GAMS\47\"
    LogOption 3
    ErrMsg 1
    ErrorLog 99
    IDE 1
    LstTitleLeftAligned 1
Licensee: Course License                                 S240418|0002AO-GEN
          Stiftung Universitaet Hildesheim                          DCE3433
          C:\Program Files (x86)\GAMS\47\gamslice.txt
          License Admin: Julia Rieck, rieck@bwl.uni-hildesheim.de          
          Course license for use within the course and related course work
          The evaluation period of the license will expire on Oct 15, 2024
Processor information: 1 socket(s), 6 core(s), and 12 thread(s) available
GAMS 47.4.0   Copyright (C) 1987-2024 GAMS Development. All rights reserved
--- Starting compilation
--- sourceFile.gms(806) 3 Mb
--- Starting execution: elapsed 0:00:00.010
--- sourceFile.gms(706) 4 Mb
--- Generating MIP model optModel
--- sourceFile.gms(708) 31 Mb
---   37,810 rows  76,946 columns  391,499 non-zeroes
---   76,905 discrete-columns
--- Range statistics (absolute non-zero finite values)
--- RHS       [min, max] : [ 1.000E+00, 3.296E+04] - Zero values observed as well
--- Bound     [min, max] : [ 1.000E+00, 1.000E+00] - Zero values observed as well
--- Matrix    [min, max] : [ 5.000E-01, 8.000E+00]
--- Executing CPLEX (Solvelink=2): elapsed 0:00:00.869

IBM ILOG CPLEX   47.4.0 838fd78c Jul 30, 2024          WEI x86 64bit/MS Window

--- GAMS/CPLEX Link licensed for continuous and discrete problems.
--- GMO setup time: 0.00s
--- Space for names approximately 3.42 Mb
--- Use option 'names no' to turn use of names off
--- GMO memory 31.28 Mb (peak 31.87 Mb)
--- Dictionary memory 0.00 Mb
--- Cplex 22.1.1.0 link memory 1.90 Mb (peak 10.69 Mb)
--- Starting Cplex

Version identifier: 22.1.1.0 | 2022-11-27 | 9160aff4d
CPXPARAM_Advance                                 0
CPXPARAM_MIP_Display                             4
CPXPARAM_MIP_Pool_Capacity                       0
CPXPARAM_MIP_Tolerances_AbsMIPGap                0
CPXPARAM_MIP_Tolerances_MIPGap                   0.01
Generic callback                                 0x50
Tried aggregator 2 times.
MIP Presolve eliminated 26949 rows and 53812 columns.
MIP Presolve modified 34976 coefficients.
Aggregator did 414 substitutions.
Reduced MIP has 10326 rows, 22712 columns, and 198641 nonzeros.
Reduced MIP has 22590 binaries, 122 generals, 0 SOSs, and 0 indicators.
Presolve time = 0.28 sec. (332.19 ticks)
Found incumbent of value 9676.400000 after 0.64 sec. (650.44 ticks)
Probing fixed 533 vars, tightened 0 bounds.
Probing time = 0.09 sec. (31.35 ticks)
Tried aggregator 2 times.
Detecting symmetries...
MIP Presolve eliminated 2993 rows and 1142 columns.
Aggregator did 5 substitutions.
Reduced MIP has 7328 rows, 21565 columns, and 179015 nonzeros.
Reduced MIP has 21443 binaries, 122 generals, 0 SOSs, and 0 indicators.
Presolve time = 0.22 sec. (272.45 ticks)
Probing time = 0.06 sec. (21.19 ticks)
Clique table members: 105295.
MIP emphasis: balance optimality and feasibility.
MIP search method: dynamic search.
Parallel mode: deterministic, using up to 12 threads.
Parallel mode: deterministic, using up to 2 threads for parallel tasks at root LP.
Parallel mode: deterministic, using up to 10 threads for concurrent optimization:
 * Starting dual Simplex on 1 thread...
 * Starting Barrier on 8 threads...
 * Starting primal Simplex on 1 thread...
Tried aggregator 1 time.
LP Presolve eliminated 15 rows and 30 columns.
Aggregator did 5 substitutions.
Reduced LP has 7308 rows, 21530 columns, and 178960 nonzeros.
Presolve time = 0.02 sec. (22.31 ticks)
Initializing dual steep norms . . .

Iteration log . . .
Iteration:     1   Dual objective     =           346.400000
Perturbation started.
Iteration:   202   Dual objective     =           428.400000
Iteration:   538   Dual objective     =           607.400097
Iteration:   932   Dual objective     =           617.945580
Iteration:  1296   Dual objective     =           633.945610
Iteration:  1692   Dual objective     =           745.945645
Iteration:  2051   Dual objective     =           773.218398
Iteration:  2417   Dual objective     =           800.218426
Iteration:  2742   Dual objective     =           821.673003
Iteration:  2937   Dual objective     =           831.550309
Iteration:  3115   Dual objective     =           850.450343
Iteration:  3331   Dual objective     =           877.400391
Iteration:  3554   Dual objective     =           931.400428
Iteration:  3728   Dual objective     =           947.350473
Iteration:  3959   Dual objective     =           994.400511
Iteration:  4145   Dual objective     =          1007.600529
Iteration:  4343   Dual objective     =          1027.600550
Iteration:  4561   Dual objective     =          1060.100537
Iteration:  4742   Dual objective     =          1081.000545
Iteration:  4944   Dual objective     =          1086.150570
Iteration:  5189   Dual objective     =          1148.300625
Iteration:  5423   Dual objective     =          1165.400671
Iteration:  5597   Dual objective     =          1183.800644
Iteration:  5768   Dual objective     =          1204.750648
Iteration:  5925   Dual objective     =          1209.500686
Iteration:  6072   Dual objective     =          1223.850658
Iteration:  6254   Dual objective     =          1235.750695
Iteration:  6410   Dual objective     =          1282.700692
Iteration:  6588   Dual objective     =          1289.650731
Iteration:  6744   Dual objective     =          1294.900757
Iteration:  6895   Dual objective     =          1319.800755
Iteration:  7058   Dual objective     =          1320.750815
Iteration:  7209   Dual objective     =          1341.700812
Iteration:  7376   Dual objective     =          1362.550836
Iteration:  7534   Dual objective     =          1372.550892
Iteration:  7691   Dual objective     =          1374.450975
Iteration:  7845   Dual objective     =          1388.501021
Iteration:  7990   Dual objective     =          1431.250736
Iteration:  8169   Dual objective     =          1441.000766
Iteration:  8330   Dual objective     =          1451.050782
Iteration:  8487   Dual objective     =          1452.100843
Iteration:  8649   Dual objective     =          1456.150884
Iteration:  8817   Dual objective     =          1456.250871
Iteration:  9019   Dual objective     =          1461.275882
Iteration:  9176   Dual objective     =          1461.275917
Iteration:  9337   Dual objective     =          1489.200931
Iteration:  9476   Dual objective     =          1516.925986
Iteration:  9602   Dual objective     =          1525.876403
Iteration:  9739   Dual objective     =          1527.862341
Iteration:  9871   Dual objective     =          1541.399071
Iteration: 10014   Dual objective     =          1541.399711
Iteration: 10154   Dual objective     =          1541.400039
Iteration: 10307   Dual objective     =          1545.400267
Iteration: 10452   Dual objective     =          1545.400425
Iteration: 10590   Dual objective     =          1547.400518
Iteration: 10718   Dual objective     =          1547.400617
Iteration: 10886   Dual objective     =          1559.400632
Iteration: 11060   Dual objective     =          1577.400567
Iteration: 11248   Dual objective     =          1581.400643
Iteration: 11399   Dual objective     =          1581.400732
Iteration: 11538   Dual objective     =          1596.400727
Iteration: 11685   Dual objective     =          1597.400786
Removing perturbation.

Barrier solved model.

Root relaxation solution time = 2.89 sec. (2120.76 ticks)

        Nodes                                         Cuts/
   Node  Left     Objective  IInf  Best Integer    Best Bound    ItCnt     Gap

*     0+    0                         9676.4000      346.4000            96.42%
Found incumbent of value 9676.400000 after 4.02 sec. (3158.89 ticks)
      0     0     1754.0800  2653     9676.4000     1754.0800       17   81.87%
*     0+    0                         1871.4000     1754.0800             6.27%
Found incumbent of value 1871.400000 after 9.81 sec. (9798.25 ticks)
      0     0     1756.5000  1874     1871.4000     Cuts: 104     5762    6.14%
      0     0     1758.4000  2015     1871.4000     Cuts: 176    12995    6.04%

GUB cover cuts applied:  8
Clique cuts applied:  54
Implied bound cuts applied:  1
Mixed integer rounding cuts applied:  1
Zero-half cuts applied:  213
Gomory fractional cuts applied:  19

Root node processing (before b&c):
  Real time             =   14.80 sec. (16123.40 ticks)
Parallel b&c, 12 threads:
  Real time             =    0.00 sec. (0.00 ticks)
  Sync time (average)   =    0.00 sec.
  Wait time (average)   =    0.00 sec.
                          ------------
Total (root+branch&cut) =   14.80 sec. (16123.40 ticks)

--- MIP status (113): aborted.
--- Cplex Time: 14.81sec (det. 16123.62 ticks)

--- Returning a primal only solution to GAMS (marginals all set to NA).
--- Fixing integer variables and solving final LP...

Version identifier: 22.1.1.0 | 2022-11-27 | 9160aff4d
CPXPARAM_Advance                                 2
CPXPARAM_MIP_Display                             4
CPXPARAM_MIP_Pool_Capacity                       0
CPXPARAM_MIP_Tolerances_AbsMIPGap                0
CPXPARAM_MIP_Tolerances_MIPGap                   0.01
Parallel mode: deterministic, using up to 12 threads for concurrent optimization:
 * Starting dual Simplex on 1 thread...
 * Starting Barrier on 10 threads...
 * Starting primal Simplex on 1 thread...
Tried aggregator 1 time.
LP Presolve eliminated 37809 rows and 76946 columns.
All rows and columns eliminated.
Presolve time = 0.05 sec. (35.87 ticks)

Dual simplex solved model.


--- Fixed MIP status (1): optimal.
--- Cplex Time: 0.11sec (det. 65.28 ticks)


Problem aborted
MIP Solution:         1871.400000    (15621 iterations, 0 nodes)
Final Solve:          1871.400000    (0 iterations)

Best possible:        1758.400000
Absolute gap:          113.000000
Relative gap:            0.060383

--- Reading solution for model optModel
--- sourceFile.gms(708) 31 Mb  15 secs
--- Executing after solve: elapsed 0:00:16.366
--- sourceFile.gms(806) 34 Mb
--- Putfile outputFileSimple C:\projects\itStud9Lp2024\gamsWorkSpace\output_s.txt
--- Putfile outputFileTable C:\projects\itStud9Lp2024\gamsWorkSpace\output_t.txt
--- Putfile outputFileCsv C:\projects\itStud9Lp2024\gamsWorkSpace\output_t.csv
*** Status: Normal completion
--- Job sourceFile.gms Stop 08/14/24 13:19:35 elapsed 0:00:16.399
